

velocity	driver set 0 0 0.05
neighbor	1.1 bin
neigh_modify	delay 5

timestep	3

thermo_style	multi
thermo		50000

#minimize 	1.0e-4 1.0e-6 100 1000
fix		1 protein nvt temp 298.15 298.15 $(100.0*dt)
fix		2 protein langevin 298.15 298.15 14 